100
128
42
19
8
6
15
14
1
27
4
7
6
24
33
23
17
33
16
10
17
23
14
24
29
7
2
30
12
11
39
3
13
3
4
11
6
8
2
38
36
9
1
17
12
16
9
24
3
20
22
18
56
8
5
10
28
46
5
5
32
1
34
33
4
43
4
45
2
8
26
3
39
3
22
55
19
51
40
49
45
12
45
52
51
23
52
2
54
1
3
43
3
63
20
8
21
36
60
5
34
62